%%%mzn-stat: initTime=0.006693802
%%%mzn-stat: objective=304
%%%mzn-stat: nodes=1363
%%%mzn-stat: restarts=0
%%%mzn-stat: peakDepth=338
%%%mzn-stat: solveTime=0.1186565
%%%mzn-stat: variables=856
%%%mzn-stat: propagators=604
%%%mzn-stat: failures=817
%%%mzn-stat: propagations=117189
%%%mzn-stat: nogoods=817
%%%mzn-stat: AverageConflictSize=5.283965728274174
%%%mzn-stat: NumUnitNogoodsLearned=303
%%%mzn-stat: AverageLearnedNogoodLength=7.361077111383109
%%%mzn-stat: AverageBacktrackAmount=0
%%%mzn-stat: AverageLbd=3.4283965728274173
%%%mzn-stat-end
maxleg = 304;
succ = array1d(1..50,[39, 18, 2, 50, 16, 44, 1, 19, 24, 30, 38, 7, 3, 37, 8, 47, 35, 17, 40, 15, 28, 29, 9, 11, 10, 23, 46, 6, 20, 26, 41, 22, 31, 12, 43, 45, 42, 14, 21, 34, 13, 48, 4, 27, 32, 33, 49, 36, 25, 5]);
% time elapsed: 9.34 s
----------
==========
% time elapsed: 9.34 s
%%%mzn-stat: initTime=0.006693802
%%%mzn-stat: objective=304
%%%mzn-stat: nodes=1363
%%%mzn-stat: restarts=0
%%%mzn-stat: peakDepth=338
%%%mzn-stat: solveTime=0.118661258
%%%mzn-stat: variables=856
%%%mzn-stat: propagators=604
%%%mzn-stat: failures=817
%%%mzn-stat: propagations=117189
%%%mzn-stat: nogoods=817
%%%mzn-stat: AverageConflictSize=5.283965728274174
%%%mzn-stat: NumUnitNogoodsLearned=303
%%%mzn-stat: AverageLearnedNogoodLength=7.361077111383109
%%%mzn-stat: AverageBacktrackAmount=0
%%%mzn-stat: AverageLbd=3.4283965728274173
%%%mzn-stat-end
